jobs  (incl. supersource/sink ):	102
RESOURCES
- renewable                 : 2 R
- nonrenewable              : 4 N
- doubly constrained        : 0 D
************************************************************************
PRECEDENCE RELATIONS:
jobnr.    #modes  #successors   successors
1	1	32		2 3 4 5 6 7 8 9 10 11 12 13 14 15 16 17 19 20 21 22 23 24 26 27 32 33 34 38 39 42 45 47 
2	3	15		86 85 83 73 70 65 64 56 53 51 43 37 36 30 25 
3	3	20		101 100 97 96 87 82 74 72 71 64 63 61 59 56 51 50 44 41 40 36 
4	3	19		101 100 84 83 82 81 74 73 71 65 54 53 52 51 50 49 46 41 31 
5	3	15		101 87 83 82 73 72 64 62 61 57 56 54 49 46 18 
6	3	14		101 87 83 81 73 64 60 59 55 54 53 49 43 18 
7	3	18		101 100 98 87 82 81 74 73 71 67 63 62 54 52 46 44 40 36 
8	3	9		87 74 73 63 56 49 43 40 18 
9	3	11		97 87 83 82 73 72 65 55 54 49 18 
10	3	9		101 87 83 81 64 49 48 43 18 
11	3	13		101 99 90 84 74 63 59 58 55 48 43 41 40 
12	3	10		87 85 81 73 61 59 51 48 29 28 
13	3	11		98 81 72 71 70 63 61 54 49 40 30 
14	3	20		100 99 97 96 88 87 84 81 78 73 72 69 68 67 66 63 61 57 55 52 
15	3	17		101 100 98 97 95 91 90 89 84 71 70 69 67 63 58 49 40 
16	3	12		101 100 98 87 86 83 82 68 67 49 46 35 
17	3	19		100 99 98 96 95 93 92 88 87 84 72 70 68 67 66 63 60 54 51 
18	3	16		100 98 96 95 94 88 86 85 84 80 71 70 69 66 51 50 
19	3	15		100 98 96 95 94 88 87 80 72 71 70 67 55 51 49 
20	3	13		99 94 92 91 90 89 87 84 80 77 62 59 43 
21	3	19		99 98 97 96 95 94 93 91 84 81 80 78 71 69 67 66 64 63 56 
22	3	14		98 96 95 94 92 91 85 83 69 68 67 66 64 46 
23	3	13		100 97 96 82 81 80 73 70 68 67 64 61 49 
24	3	18		100 99 97 94 92 90 89 88 86 81 79 77 72 68 67 66 63 58 
25	3	14		100 99 98 96 95 94 92 90 89 81 77 63 54 50 
26	3	14		100 99 98 87 84 83 81 77 71 67 66 62 57 54 
27	3	18		98 95 94 90 89 87 84 83 82 81 80 79 78 77 76 71 66 65 
28	3	15		97 96 95 90 89 86 82 80 79 78 72 70 68 67 66 
29	3	12		100 99 95 94 93 90 88 79 77 66 62 60 
30	3	15		101 100 97 95 94 93 91 90 89 80 78 77 74 68 67 
31	3	15		98 96 94 93 91 90 89 87 85 80 78 69 68 67 66 
32	3	15		100 98 95 93 92 91 89 87 86 79 78 77 68 67 66 
33	3	12		99 96 95 94 93 91 89 88 83 76 68 54 
34	3	12		100 98 92 90 88 85 78 77 68 67 66 60 
35	3	11		95 94 92 90 88 85 77 76 72 66 60 
36	3	7		94 90 89 80 77 76 49 
37	3	10		96 94 91 90 89 81 79 77 75 67 
38	3	9		101 98 97 93 90 80 77 71 66 
39	3	6		95 92 89 77 66 54 
40	3	9		94 93 86 85 83 80 77 76 66 
41	3	9		98 95 94 92 91 89 80 77 68 
42	3	9		97 96 95 93 84 78 77 76 69 
43	3	8		100 97 93 82 78 68 67 66 
44	3	8		95 91 89 88 84 76 68 66 
45	3	8		99 94 92 91 80 77 75 67 
46	3	7		99 97 93 80 78 75 70 
47	3	7		101 95 94 81 79 76 66 
48	3	7		98 95 92 88 80 78 76 
49	3	6		99 93 92 79 78 66 
50	3	5		93 91 79 68 67 
51	3	6		91 90 89 78 76 75 
52	3	6		93 92 90 86 80 77 
53	3	5		90 80 77 76 75 
54	3	4		80 78 75 69 
55	3	4		91 89 77 76 
56	3	4		79 77 76 75 
57	3	4		94 92 90 79 
58	3	4		96 87 80 78 
59	3	3		98 75 69 
60	3	3		97 91 89 
61	3	3		95 94 76 
62	3	3		96 78 76 
63	3	2		76 75 
64	3	2		90 89 
65	3	2		93 92 
66	3	1		75 
67	3	1		76 
68	3	1		75 
69	3	1		79 
70	3	1		77 
71	3	1		92 
72	3	1		91 
73	3	1		75 
74	3	1		88 
75	3	1		102 
76	3	1		102 
77	3	1		102 
78	3	1		102 
79	3	1		102 
80	3	1		102 
81	3	1		102 
82	3	1		102 
83	3	1		102 
84	3	1		102 
85	3	1		102 
86	3	1		102 
87	3	1		102 
88	3	1		102 
89	3	1		102 
90	3	1		102 
91	3	1		102 
92	3	1		102 
93	3	1		102 
94	3	1		102 
95	3	1		102 
96	3	1		102 
97	3	1		102 
98	3	1		102 
99	3	1		102 
100	3	1		102 
101	3	1		102 
102	1	0		
************************************************************************
REQUESTS/DURATIONS
jobnr.	mode	dur	R1	R2	N1	N2	N3	N4	
------------------------------------------------------------------------
1	1	0	0	0	0	0	0	0	
2	1	2	4	4	7	6	5	9	
	2	4	3	3	6	5	5	7	
	3	9	3	3	6	4	4	4	
3	1	4	2	2	7	7	5	8	
	2	6	2	1	6	7	4	6	
	3	9	2	1	5	2	3	4	
4	1	1	2	3	5	3	8	5	
	2	2	2	1	5	2	6	5	
	3	6	2	1	5	2	5	5	
5	1	2	4	3	6	3	9	4	
	2	5	2	3	4	2	7	3	
	3	10	2	1	4	1	7	1	
6	1	3	5	1	7	6	1	6	
	2	4	5	1	7	4	1	3	
	3	8	5	1	7	3	1	1	
7	1	4	3	2	6	4	2	6	
	2	5	2	2	6	3	2	4	
	3	9	1	2	4	3	2	3	
8	1	4	3	5	6	7	6	4	
	2	8	3	3	5	6	6	4	
	3	10	2	3	5	3	6	4	
9	1	2	5	3	6	5	10	6	
	2	7	4	3	6	3	8	4	
	3	8	4	3	5	1	6	3	
10	1	4	5	5	2	4	8	9	
	2	5	4	5	2	4	5	8	
	3	6	4	5	2	4	5	7	
11	1	2	3	4	4	7	5	10	
	2	7	3	4	2	5	5	10	
	3	10	1	4	1	5	5	10	
12	1	1	4	5	5	4	7	7	
	2	2	2	5	5	4	6	6	
	3	5	2	5	5	2	6	3	
13	1	6	4	4	8	6	6	6	
	2	7	3	4	6	5	6	5	
	3	9	3	4	6	3	4	4	
14	1	4	5	3	7	10	7	10	
	2	5	5	2	6	10	6	9	
	3	7	5	2	2	10	5	9	
15	1	1	2	3	4	4	8	9	
	2	3	2	3	3	2	8	7	
	3	10	2	3	2	2	7	6	
16	1	3	5	2	4	2	6	8	
	2	4	4	2	4	2	5	8	
	3	5	4	1	4	2	3	8	
17	1	4	3	3	4	5	9	5	
	2	8	3	3	4	3	8	4	
	3	10	2	1	2	3	6	4	
18	1	2	3	2	5	5	6	9	
	2	7	3	2	5	5	6	6	
	3	9	3	2	3	4	5	3	
19	1	3	3	3	9	6	8	3	
	2	6	3	3	4	4	7	3	
	3	7	3	2	2	1	2	3	
20	1	5	3	2	9	2	10	3	
	2	8	3	2	7	2	8	3	
	3	10	2	1	6	1	6	3	
21	1	3	5	5	7	6	6	5	
	2	5	5	2	3	4	4	3	
	3	7	5	2	3	3	3	3	
22	1	4	2	4	4	7	9	4	
	2	5	2	2	3	4	8	3	
	3	9	1	1	1	2	7	3	
23	1	5	3	5	7	8	1	9	
	2	8	3	4	4	8	1	8	
	3	10	2	4	4	8	1	6	
24	1	3	5	3	7	7	7	9	
	2	7	4	3	7	4	5	6	
	3	9	4	3	2	2	3	5	
25	1	2	2	3	7	4	10	8	
	2	3	2	3	6	3	8	7	
	3	5	2	2	6	3	8	7	
26	1	1	3	1	8	6	7	8	
	2	6	3	1	6	5	6	7	
	3	8	3	1	5	4	6	6	
27	1	7	3	3	9	5	5	7	
	2	8	2	2	5	3	4	6	
	3	10	2	2	2	3	1	6	
28	1	1	5	4	6	7	10	7	
	2	9	3	4	4	5	9	6	
	3	10	3	4	3	3	7	6	
29	1	6	1	4	4	4	3	1	
	2	7	1	3	4	2	2	1	
	3	10	1	2	3	1	2	1	
30	1	7	4	4	7	9	3	1	
	2	8	2	3	3	7	2	1	
	3	9	1	3	3	5	2	1	
31	1	1	4	3	6	9	8	6	
	2	2	4	3	3	8	6	5	
	3	6	4	3	3	8	6	4	
32	1	1	3	3	2	9	9	8	
	2	2	2	3	2	9	5	8	
	3	6	1	3	2	9	4	7	
33	1	3	4	4	7	8	3	4	
	2	5	3	3	7	7	2	4	
	3	8	3	3	7	6	1	2	
34	1	3	2	4	8	9	10	4	
	2	6	1	3	8	4	8	3	
	3	7	1	3	7	3	8	1	
35	1	4	3	4	5	2	6	8	
	2	8	2	3	4	2	6	7	
	3	10	1	3	2	2	6	6	
36	1	1	2	4	5	9	9	9	
	2	4	2	4	3	8	8	9	
	3	6	2	3	2	8	8	9	
37	1	6	2	2	7	3	9	9	
	2	9	2	2	4	3	4	8	
	3	10	1	2	2	3	2	8	
38	1	4	3	3	8	6	5	7	
	2	8	1	3	8	5	4	7	
	3	9	1	3	8	3	3	3	
39	1	1	1	3	8	10	9	8	
	2	3	1	2	6	10	9	6	
	3	6	1	2	6	10	9	5	
40	1	3	5	5	4	3	7	8	
	2	5	5	3	3	2	6	7	
	3	8	5	3	2	1	6	3	
41	1	1	4	4	3	4	7	10	
	2	7	4	4	2	3	4	8	
	3	8	3	4	2	1	3	8	
42	1	2	1	5	8	10	7	1	
	2	4	1	4	8	7	6	1	
	3	9	1	4	5	6	3	1	
43	1	4	5	4	5	4	6	4	
	2	7	5	3	4	3	4	3	
	3	8	5	2	3	3	4	3	
44	1	2	4	3	7	3	3	8	
	2	9	3	3	5	2	3	8	
	3	10	3	2	2	2	1	5	
45	1	4	4	5	10	9	5	5	
	2	6	2	5	6	7	4	4	
	3	7	2	5	5	7	4	4	
46	1	3	3	3	6	7	8	7	
	2	9	3	3	6	7	7	5	
	3	10	3	3	5	6	7	5	
47	1	2	3	5	7	8	7	7	
	2	3	2	4	5	8	6	5	
	3	4	2	2	4	8	6	5	
48	1	1	1	1	10	9	4	6	
	2	3	1	1	7	6	3	5	
	3	10	1	1	5	6	2	4	
49	1	5	4	5	4	4	9	9	
	2	6	3	2	4	3	6	8	
	3	9	3	2	4	2	5	8	
50	1	4	4	2	6	7	10	10	
	2	5	4	2	5	7	8	10	
	3	9	4	1	4	7	6	10	
51	1	2	3	3	9	7	4	5	
	2	4	2	3	7	4	3	3	
	3	10	2	3	6	3	1	3	
52	1	7	5	5	4	4	9	8	
	2	8	4	2	3	2	5	8	
	3	10	2	2	2	2	4	5	
53	1	4	3	5	9	6	4	10	
	2	5	3	4	7	6	2	9	
	3	6	3	4	3	6	2	9	
54	1	3	2	4	9	6	5	2	
	2	6	2	3	8	4	5	1	
	3	7	2	3	5	3	3	1	
55	1	2	4	4	8	3	4	5	
	2	7	3	4	5	2	4	5	
	3	8	2	4	4	2	4	5	
56	1	1	2	5	7	7	2	5	
	2	6	1	3	7	5	2	4	
	3	8	1	1	6	5	2	4	
57	1	7	2	3	9	7	9	6	
	2	8	2	2	7	3	8	5	
	3	9	2	2	7	2	8	4	
58	1	6	3	4	5	8	7	10	
	2	7	3	4	4	7	6	9	
	3	9	3	4	4	4	6	8	
59	1	4	3	4	5	7	9	9	
	2	5	2	2	3	7	7	7	
	3	7	1	2	3	5	7	4	
60	1	2	2	3	7	5	8	7	
	2	3	2	2	5	4	6	6	
	3	4	2	1	2	2	6	4	
61	1	4	5	3	4	8	10	9	
	2	8	4	3	2	7	8	9	
	3	9	4	3	1	6	8	9	
62	1	3	3	4	6	6	8	4	
	2	4	3	3	6	6	5	3	
	3	7	3	1	6	6	3	3	
63	1	7	4	4	3	5	7	1	
	2	8	4	4	2	4	5	1	
	3	10	3	4	1	2	3	1	
64	1	3	5	3	4	3	6	8	
	2	7	4	2	3	1	6	7	
	3	10	4	2	3	1	6	5	
65	1	6	3	4	7	5	5	8	
	2	8	2	4	4	4	4	4	
	3	10	2	4	4	3	3	4	
66	1	1	3	2	2	6	4	7	
	2	6	3	2	2	5	3	7	
	3	9	3	2	2	5	3	6	
67	1	2	5	3	6	5	5	10	
	2	3	4	2	5	4	4	8	
	3	8	4	2	4	4	1	8	
68	1	1	5	3	10	7	7	5	
	2	2	4	2	8	6	6	3	
	3	3	4	2	5	5	6	3	
69	1	3	2	3	3	7	9	10	
	2	5	2	2	3	6	9	8	
	3	9	2	1	3	5	8	8	
70	1	1	1	3	9	6	4	6	
	2	7	1	2	8	3	2	4	
	3	10	1	2	6	3	1	1	
71	1	2	5	3	9	10	6	7	
	2	5	2	3	5	8	6	6	
	3	7	1	3	4	8	6	6	
72	1	3	4	3	3	9	4	4	
	2	7	2	3	2	8	3	3	
	3	10	2	1	2	6	3	3	
73	1	1	3	2	5	10	8	5	
	2	4	2	2	5	9	6	4	
	3	6	2	2	2	8	4	3	
74	1	2	2	5	8	6	8	5	
	2	4	1	4	5	6	4	2	
	3	6	1	3	4	6	2	1	
75	1	1	2	3	9	3	9	5	
	2	6	2	2	7	2	7	3	
	3	10	2	1	6	1	6	2	
76	1	6	1	5	6	7	2	8	
	2	8	1	4	4	6	1	7	
	3	10	1	4	4	6	1	6	
77	1	1	5	2	2	6	6	6	
	2	4	4	2	1	5	3	6	
	3	9	3	2	1	5	3	6	
78	1	8	2	2	7	5	10	8	
	2	9	1	1	5	4	10	8	
	3	10	1	1	4	2	10	7	
79	1	6	4	1	8	6	9	3	
	2	9	3	1	3	6	3	2	
	3	10	3	1	2	6	1	2	
80	1	1	2	5	10	10	8	8	
	2	3	2	4	9	9	6	8	
	3	5	2	4	9	9	5	8	
81	1	4	4	5	5	6	7	7	
	2	9	3	4	4	5	5	6	
	3	10	3	4	3	4	4	4	
82	1	1	1	4	10	6	5	1	
	2	8	1	2	8	6	3	1	
	3	9	1	2	8	3	2	1	
83	1	1	4	2	3	3	3	6	
	2	2	4	2	2	2	2	5	
	3	4	3	2	2	2	2	4	
84	1	4	3	1	8	4	4	6	
	2	8	3	1	6	4	2	6	
	3	9	3	1	5	4	2	4	
85	1	4	4	4	9	8	3	8	
	2	5	3	2	7	5	3	8	
	3	9	3	2	6	2	2	8	
86	1	5	2	4	1	9	5	8	
	2	9	1	4	1	8	4	7	
	3	10	1	4	1	5	3	7	
87	1	1	2	3	9	4	4	7	
	2	4	2	2	7	4	4	5	
	3	8	2	1	6	4	4	4	
88	1	1	4	4	6	6	5	7	
	2	9	4	4	5	4	5	4	
	3	10	2	4	4	4	4	2	
89	1	7	4	5	4	4	3	6	
	2	8	4	4	3	3	3	5	
	3	10	3	3	2	3	1	5	
90	1	4	4	5	4	7	5	5	
	2	5	2	3	2	7	3	3	
	3	6	1	2	1	7	3	2	
91	1	4	3	4	6	8	5	6	
	2	5	3	4	6	7	4	5	
	3	7	2	4	5	7	1	4	
92	1	5	4	2	3	8	8	8	
	2	8	4	1	3	5	6	4	
	3	10	3	1	3	5	5	4	
93	1	5	3	4	5	8	4	10	
	2	6	2	3	5	8	4	4	
	3	7	2	2	3	6	4	4	
94	1	3	3	5	3	8	7	5	
	2	7	1	5	3	5	6	3	
	3	8	1	5	1	4	3	1	
95	1	3	2	4	3	8	7	10	
	2	7	2	2	2	6	5	7	
	3	8	2	1	1	4	3	6	
96	1	3	4	3	4	3	8	2	
	2	8	2	2	4	2	4	2	
	3	9	2	2	3	2	4	2	
97	1	2	4	2	9	7	4	7	
	2	3	4	1	5	6	2	6	
	3	8	4	1	5	6	1	6	
98	1	2	5	3	8	5	4	6	
	2	6	3	3	8	4	3	5	
	3	9	2	3	8	3	2	3	
99	1	5	3	3	7	7	4	3	
	2	6	3	3	5	6	2	3	
	3	8	1	3	4	6	2	2	
100	1	4	3	4	10	5	8	7	
	2	9	3	3	9	4	8	7	
	3	10	3	2	9	1	8	2	
101	1	2	3	2	7	4	7	6	
	2	3	3	1	7	3	3	3	
	3	4	2	1	7	2	2	3	
102	1	0	0	0	0	0	0	0	
************************************************************************

 RESOURCE AVAILABILITIES 
	R 1	R 2	N 1	N 2	N 3	N 4
	56	57	447	457	466	501

************************************************************************
